p edge 61 896
e 1 7
e 1 9
e 1 10
e 1 11
e 1 12
e 1 13
e 1 14
e 1 16
e 1 21
e 1 22
e 1 26
e 1 28
e 1 29
e 1 30
e 1 31
e 1 35
e 1 38
e 1 39
e 1 40
e 1 41
e 1 42
e 1 43
e 1 45
e 1 47
e 1 48
e 1 50
e 1 52
e 1 56
e 1 57
e 1 58
e 1 59
e 1 60
e 2 4
e 2 7
e 2 12
e 2 19
e 2 22
e 2 24
e 2 30
e 2 31
e 2 33
e 2 35
e 2 36
e 2 38
e 2 41
e 2 42
e 2 47
e 2 50
e 2 53
e 2 54
e 2 57
e 2 59
e 2 61
e 3 4
e 3 5
e 3 10
e 3 12
e 3 14
e 3 16
e 3 17
e 3 18
e 3 20
e 3 23
e 3 25
e 3 26
e 3 27
e 3 29
e 3 30
e 3 34
e 3 35
e 3 37
e 3 40
e 3 44
e 3 45
e 3 46
e 3 49
e 3 51
e 3 52
e 3 53
e 3 55
e 3 56
e 3 57
e 4 5
e 4 7
e 4 8
e 4 10
e 4 11
e 4 13
e 4 16
e 4 18
e 4 19
e 4 20
e 4 23
e 4 28
e 4 30
e 4 32
e 4 33
e 4 36
e 4 40
e 4 43
e 4 46
e 4 47
e 4 49
e 4 52
e 4 55
e 4 57
e 4 58
e 4 59
e 4 60
e 4 61
e 5 7
e 5 8
e 5 9
e 5 10
e 5 13
e 5 15
e 5 16
e 5 17
e 5 18
e 5 19
e 5 21
e 5 22
e 5 25
e 5 28
e 5 31
e 5 33
e 5 35
e 5 39
e 5 42
e 5 44
e 5 46
e 5 47
e 5 49
e 5 52
e 5 54
e 5 56
e 5 58
e 5 59
e 5 61
e 6 9
e 6 10
e 6 12
e 6 14
e 6 18
e 6 21
e 6 24
e 6 25
e 6 26
e 6 27
e 6 33
e 6 36
e 6 37
e 6 40
e 6 42
e 6 44
e 6 45
e 6 52
e 6 54
e 6 55
e 6 59
e 7 11
e 7 16
e 7 19
e 7 23
e 7 24
e 7 25
e 7 32
e 7 37
e 7 40
e 7 43
e 7 45
e 7 46
e 7 47
e 7 48
e 7 51
e 7 53
e 7 56
e 7 57
e 7 59
e 7 61
e 8 9
e 8 12
e 8 13
e 8 15
e 8 18
e 8 19
e 8 20
e 8 23
e 8 24
e 8 25
e 8 27
e 8 28
e 8 29
e 8 30
e 8 32
e 8 33
e 8 34
e 8 36
e 8 37
e 8 38
e 8 39
e 8 40
e 8 42
e 8 43
e 8 45
e 8 47
e 8 48
e 8 51
e 8 54
e 8 56
e 8 58
e 8 60
e 9 10
e 9 12
e 9 13
e 9 14
e 9 16
e 9 18
e 9 22
e 9 23
e 9 26
e 9 27
e 9 30
e 9 33
e 9 34
e 9 35
e 9 36
e 9 38
e 9 46
e 9 52
e 9 53
e 9 54
e 9 56
e 9 59
e 9 61
e 10 14
e 10 19
e 10 22
e 10 25
e 10 26
e 10 27
e 10 28
e 10 31
e 10 33
e 10 35
e 10 36
e 10 38
e 10 42
e 10 43
e 10 44
e 10 46
e 10 49
e 10 50
e 10 51
e 10 52
e 10 54
e 10 56
e 10 59
e 11 12
e 11 14
e 11 18
e 11 19
e 11 20
e 11 22
e 11 23
e 11 25
e 11 26
e 11 28
e 11 30
e 11 31
e 11 36
e 11 38
e 11 39
e 11 40
e 11 43
e 11 44
e 11 45
e 11 46
e 11 49
e 11 50
e 11 53
e 11 55
e 11 57
e 11 59
e 11 60
e 12 14
e 12 17
e 12 18
e 12 23
e 12 25
e 12 26
e 12 30
e 12 32
e 12 37
e 12 38
e 12 42
e 12 43
e 12 45
e 12 48
e 12 49
e 12 50
e 12 51
e 12 53
e 12 56
e 12 57
e 12 58
e 12 59
e 13 14
e 13 16
e 13 17
e 13 19
e 13 20
e 13 21
e 13 24
e 13 25
e 13 26
e 13 27
e 13 28
e 13 30
e 13 31
e 13 32
e 13 33
e 13 34
e 13 35
e 13 36
e 13 37
e 13 38
e 13 40
e 13 42
e 13 45
e 13 48
e 13 51
e 13 54
e 13 56
e 13 59
e 14 15
e 14 26
e 14 27
e 14 28
e 14 29
e 14 30
e 14 33
e 14 38
e 14 39
e 14 41
e 14 48
e 14 49
e 14 50
e 14 52
e 14 54
e 14 55
e 14 58
e 14 59
e 14 61
e 15 17
e 15 18
e 15 19
e 15 21
e 15 22
e 15 23
e 15 26
e 15 28
e 15 29
e 15 30
e 15 31
e 15 36
e 15 38
e 15 39
e 15 40
e 15 41
e 15 42
e 15 49
e 15 50
e 15 53
e 15 56
e 15 58
e 15 60
e 16 17
e 16 18
e 16 20
e 16 24
e 16 25
e 16 26
e 16 30
e 16 31
e 16 33
e 16 36
e 16 38
e 16 39
e 16 41
e 16 43
e 16 47
e 16 48
e 16 49
e 16 50
e 16 51
e 16 53
e 16 58
e 16 59
e 16 60
e 16 61
e 17 19
e 17 22
e 17 24
e 17 27
e 17 29
e 17 30
e 17 31
e 17 36
e 17 37
e 17 39
e 17 40
e 17 42
e 17 43
e 17 44
e 17 46
e 17 49
e 17 50
e 17 51
e 17 53
e 17 54
e 17 55
e 17 57
e 17 58
e 17 59
e 17 60
e 18 19
e 18 20
e 18 21
e 18 25
e 18 27
e 18 30
e 18 33
e 18 34
e 18 36
e 18 37
e 18 38
e 18 39
e 18 40
e 18 41
e 18 43
e 18 45
e 18 46
e 18 47
e 18 48
e 18 49
e 18 52
e 18 53
e 18 54
e 18 56
e 18 58
e 18 60
e 19 20
e 19 21
e 19 22
e 19 23
e 19 24
e 19 28
e 19 30
e 19 31
e 19 33
e 19 34
e 19 37
e 19 38
e 19 40
e 19 42
e 19 44
e 19 45
e 19 51
e 19 52
e 19 53
e 19 54
e 19 56
e 19 58
e 19 60
e 19 61
e 20 22
e 20 23
e 20 25
e 20 26
e 20 27
e 20 28
e 20 30
e 20 32
e 20 33
e 20 36
e 20 39
e 20 42
e 20 47
e 20 50
e 20 52
e 20 54
e 20 59
e 20 60
e 20 61
e 21 23
e 21 24
e 21 27
e 21 29
e 21 32
e 21 33
e 21 34
e 21 38
e 21 40
e 21 42
e 21 43
e 21 47
e 21 50
e 21 51
e 21 52
e 21 53
e 21 55
e 21 56
e 21 57
e 21 58
e 21 60
e 22 24
e 22 25
e 22 26
e 22 28
e 22 30
e 22 31
e 22 35
e 22 36
e 22 42
e 22 49
e 22 50
e 22 54
e 22 56
e 22 57
e 22 59
e 22 60
e 23 29
e 23 33
e 23 35
e 23 37
e 23 38
e 23 42
e 23 43
e 23 45
e 23 47
e 23 48
e 23 51
e 23 53
e 23 55
e 23 56
e 23 57
e 23 58
e 23 59
e 23 60
e 23 61
e 24 26
e 24 29
e 24 30
e 24 32
e 24 34
e 24 37
e 24 41
e 24 43
e 24 44
e 24 51
e 24 52
e 24 53
e 24 54
e 24 56
e 24 59
e 25 30
e 25 32
e 25 35
e 25 40
e 25 41
e 25 42
e 25 44
e 25 46
e 25 48
e 25 49
e 25 51
e 25 52
e 25 53
e 25 55
e 25 58
e 25 59
e 25 60
e 25 61
e 26 30
e 26 31
e 26 32
e 26 33
e 26 35
e 26 36
e 26 37
e 26 40
e 26 42
e 26 43
e 26 44
e 26 46
e 26 47
e 26 50
e 26 51
e 26 53
e 26 54
e 26 58
e 26 61
e 27 28
e 27 31
e 27 33
e 27 37
e 27 38
e 27 40
e 27 43
e 27 44
e 27 45
e 27 46
e 27 47
e 27 49
e 27 54
e 27 58
e 27 59
e 27 61
e 28 31
e 28 32
e 28 33
e 28 34
e 28 36
e 28 40
e 28 41
e 28 49
e 28 53
e 28 57
e 28 59
e 28 61
e 29 31
e 29 32
e 29 33
e 29 34
e 29 36
e 29 38
e 29 40
e 29 41
e 29 45
e 29 46
e 29 47
e 29 48
e 29 55
e 29 56
e 29 58
e 29 61
e 30 31
e 30 32
e 30 33
e 30 34
e 30 35
e 30 36
e 30 43
e 30 44
e 30 47
e 30 48
e 30 49
e 30 50
e 30 51
e 30 52
e 30 54
e 30 55
e 30 57
e 31 34
e 31 39
e 31 40
e 31 47
e 31 48
e 31 50
e 31 51
e 31 52
e 31 53
e 31 54
e 31 55
e 31 60
e 32 35
e 32 36
e 32 37
e 32 41
e 32 42
e 32 43
e 32 45
e 32 47
e 32 48
e 32 49
e 32 50
e 32 52
e 32 53
e 32 54
e 32 55
e 32 56
e 32 59
e 32 61
e 33 34
e 33 35
e 33 36
e 33 40
e 33 44
e 33 46
e 33 48
e 33 49
e 33 50
e 33 53
e 33 54
e 33 57
e 33 58
e 33 60
e 34 36
e 34 37
e 34 38
e 34 40
e 34 43
e 34 45
e 34 50
e 34 54
e 34 56
e 34 60
e 35 36
e 35 38
e 35 40
e 35 41
e 35 48
e 35 49
e 35 50
e 35 51
e 35 52
e 35 54
e 35 55
e 35 56
e 35 57
e 35 60
e 36 37
e 36 38
e 36 39
e 36 40
e 36 42
e 36 43
e 36 44
e 36 46
e 36 50
e 36 53
e 36 54
e 36 56
e 36 58
e 36 59
e 36 61
e 37 41
e 37 43
e 37 44
e 37 46
e 37 47
e 37 48
e 37 52
e 37 53
e 37 54
e 37 56
e 37 59
e 38 39
e 38 40
e 38 45
e 38 46
e 38 48
e 38 50
e 38 51
e 38 52
e 38 55
e 38 57
e 38 58
e 38 59
e 38 61
e 39 41
e 39 42
e 39 45
e 39 47
e 39 48
e 39 49
e 39 50
e 39 51
e 39 52
e 39 53
e 39 54
e 39 56
e 39 57
e 39 59
e 39 60
e 39 61
e 40 41
e 40 42
e 40 43
e 40 44
e 40 45
e 40 48
e 40 50
e 40 52
e 40 53
e 40 54
e 40 56
e 40 57
e 40 58
e 40 61
e 41 45
e 41 47
e 41 51
e 41 54
e 41 57
e 41 58
e 41 61
e 42 43
e 42 46
e 42 52
e 42 55
e 42 57
e 42 60
e 42 61
e 43 44
e 43 45
e 43 46
e 43 49
e 43 50
e 43 53
e 43 55
e 43 57
e 43 58
e 43 59
e 43 61
e 44 45
e 44 46
e 44 51
e 44 52
e 44 54
e 44 56
e 44 58
e 44 60
e 45 48
e 45 49
e 45 51
e 45 53
e 45 54
e 45 57
e 45 60
e 46 47
e 46 49
e 46 51
e 46 56
e 46 58
e 46 59
e 46 61
e 47 48
e 47 50
e 47 51
e 47 57
e 47 61
e 48 49
e 48 50
e 48 51
e 48 54
e 48 57
e 48 58
e 48 60
e 49 50
e 49 51
e 49 52
e 49 53
e 49 56
e 49 57
e 49 60
e 49 61
e 50 53
e 50 54
e 50 55
e 50 58
e 50 61
e 51 52
e 51 58
e 51 60
e 52 54
e 52 55
e 52 56
e 52 57
e 52 58
e 52 60
e 53 54
e 53 56
e 53 58
e 53 59
e 54 57
e 54 58
e 54 60
e 55 61
e 56 57
e 56 61
e 57 58
e 57 59
e 57 61
e 59 60
